p cnf 968 2487
51 -2 -1 0
-51 2 0
-51 1 0
52 -51 -3 0
-52 51 0
-52 3 0
53 -4 -701 0
-53 4 0
-53 701 0
54 -53 -5 0
-54 53 0
-54 5 0
55 -702 -703 0
-55 702 0
-55 703 0
56 -7 -704 0
-56 7 0
-56 704 0
57 -56 -705 0
-57 56 0
-57 705 0
58 -706 -55 0
-58 706 0
-58 55 0
59 -10 -707 0
-59 10 0
-59 707 0
60 -59 -11 0
-60 59 0
-60 11 0
61 -708 -58 0
-61 708 0
-61 58 0
62 -13 -709 0
-62 13 0
-62 709 0
63 -62 -710 0
-63 62 0
-63 710 0
64 -711 -61 0
-64 711 0
-64 61 0
65 -7 -712 0
-65 7 0
-65 712 0
66 -65 -3 0
-66 65 0
-66 3 0
67 -713 -64 0
-67 713 0
-67 64 0
68 -15 -714 0
-68 15 0
-68 714 0
69 -68 -16 0
-69 68 0
-69 16 0
70 -715 -67 0
-70 715 0
-70 67 0
71 -716 -17 0
-71 716 0
-71 17 0
72 -71 -19 0
-72 71 0
-72 19 0
73 -717 -70 0
-73 717 0
-73 70 0
74 -718 -719 0
-74 718 0
-74 719 0
75 -74 -17 0
-75 74 0
-75 17 0
76 -720 -73 0
-76 720 0
-76 73 0
77 -721 -722 0
-77 721 0
-77 722 0
78 -77 -21 0
-78 77 0
-78 21 0
79 -723 -76 0
-79 723 0
-79 76 0
80 -724 -20 0
-80 724 0
-80 20 0
81 -80 -23 0
-81 80 0
-81 23 0
82 -725 -79 0
-82 725 0
-82 79 0
83 -726 -701 0
-83 726 0
-83 701 0
84 -83 -727 0
-84 83 0
-84 727 0
85 -728 -82 0
-85 728 0
-85 82 0
86 -729 -24 0
-86 729 0
-86 24 0
87 -86 -716 0
-87 86 0
-87 716 0
88 -730 -85 0
-88 730 0
-88 85 0
89 -27 -23 0
-89 27 0
-89 23 0
90 -89 -731 0
-90 89 0
-90 731 0
91 -732 -88 0
-91 732 0
-91 88 0
92 -29 -13 0
-92 29 0
-92 13 0
93 -92 -733 0
-93 92 0
-93 733 0
94 -734 -91 0
-94 734 0
-94 91 0
95 -735 -726 0
-95 735 0
-95 726 0
96 -95 -19 0
-96 95 0
-96 19 0
97 -736 -94 0
-97 736 0
-97 94 0
98 -737 -6 0
-98 737 0
-98 6 0
99 -98 -738 0
-99 98 0
-99 738 0
100 -739 -97 0
-100 739 0
-100 97 0
101 -23 -719 0
-101 23 0
-101 719 0
102 -101 -18 0
-102 101 0
-102 18 0
103 -740 -100 0
-103 740 0
-103 100 0
104 -741 -735 0
-104 741 0
-104 735 0
105 -104 -733 0
-105 104 0
-105 733 0
106 -742 -103 0
-106 742 0
-106 103 0
107 -743 -13 0
-107 743 0
-107 13 0
108 -107 -33 0
-108 107 0
-108 33 0
109 -744 -106 0
-109 744 0
-109 106 0
110 -34 -6 0
-110 34 0
-110 6 0
111 -110 -30 0
-111 110 0
-111 30 0
112 -745 -109 0
-112 745 0
-112 109 0
113 -35 -20 0
-113 35 0
-113 20 0
114 -113 -11 0
-114 113 0
-114 11 0
115 -746 -112 0
-115 746 0
-115 112 0
116 -747 -748 0
-116 747 0
-116 748 0
117 -116 -749 0
-117 116 0
-117 749 0
118 -750 -115 0
-118 750 0
-118 115 0
119 -36 -27 0
-119 36 0
-119 27 0
120 -119 -32 0
-120 119 0
-120 32 0
121 -751 -118 0
-121 751 0
-121 118 0
122 -752 -747 0
-122 752 0
-122 747 0
123 -122 -30 0
-123 122 0
-123 30 0
124 -753 -121 0
-124 753 0
-124 121 0
125 -754 -38 0
-125 754 0
-125 38 0
126 -125 -3 0
-126 125 0
-126 3 0
127 -755 -124 0
-127 755 0
-127 124 0
128 -30 -756 0
-128 30 0
-128 756 0
129 -128 -757 0
-129 128 0
-129 757 0
130 -758 -127 0
-130 758 0
-130 127 0
131 -705 -2 0
-131 705 0
-131 2 0
132 -131 -11 0
-132 131 0
-132 11 0
133 -759 -130 0
-133 759 0
-133 130 0
134 -27 -6 0
-134 27 0
-134 6 0
135 -134 -760 0
-135 134 0
-135 760 0
136 -761 -133 0
-136 761 0
-136 133 0
137 -762 -4 0
-137 762 0
-137 4 0
138 -137 -28 0
-138 137 0
-138 28 0
139 -763 -136 0
-139 763 0
-139 136 0
140 -42 -20 0
-140 42 0
-140 20 0
141 -140 -764 0
-141 140 0
-141 764 0
142 -765 -139 0
-142 765 0
-142 139 0
143 -749 -1 0
-143 749 0
-143 1 0
144 -143 -43 0
-144 143 0
-144 43 0
145 -766 -142 0
-145 766 0
-145 142 0
146 -44 -737 0
-146 44 0
-146 737 0
147 -146 -714 0
-147 146 0
-147 714 0
148 -767 -145 0
-148 767 0
-148 145 0
149 -768 -769 0
-149 768 0
-149 769 0
150 -149 -16 0
-150 149 0
-150 16 0
151 -770 -148 0
-151 770 0
-151 148 0
152 -41 -727 0
-152 41 0
-152 727 0
153 -152 -43 0
-153 152 0
-153 43 0
154 -771 -151 0
-154 771 0
-154 151 0
155 -44 -772 0
-155 44 0
-155 772 0
156 -155 -714 0
-156 155 0
-156 714 0
157 -773 -154 0
-157 773 0
-157 154 0
158 -33 -735 0
-158 33 0
-158 735 0
159 -158 -32 0
-159 158 0
-159 32 0
160 -774 -157 0
-160 774 0
-160 157 0
161 -726 -756 0
-161 726 0
-161 756 0
162 -161 -764 0
-162 161 0
-162 764 0
163 -775 -160 0
-163 775 0
-163 160 0
164 -22 -15 0
-164 22 0
-164 15 0
165 -164 -776 0
-165 164 0
-165 776 0
166 -777 -163 0
-166 777 0
-166 163 0
167 -40 -2 0
-167 40 0
-167 2 0
168 -167 -30 0
-168 167 0
-168 30 0
169 -778 -166 0
-169 778 0
-169 166 0
170 -779 -4 0
-170 779 0
-170 4 0
171 -170 -32 0
-171 170 0
-171 32 0
172 -780 -169 0
-172 780 0
-172 169 0
173 -754 -779 0
-173 754 0
-173 779 0
174 -173 -16 0
-174 173 0
-174 16 0
175 -781 -172 0
-175 781 0
-175 172 0
176 -772 -24 0
-176 772 0
-176 24 0
177 -176 -782 0
-177 176 0
-177 782 0
178 -783 -175 0
-178 783 0
-178 175 0
179 -36 -6 0
-179 36 0
-179 6 0
180 -179 -733 0
-180 179 0
-180 733 0
181 -784 -178 0
-181 784 0
-181 178 0
182 -710 -2 0
-182 710 0
-182 2 0
183 -182 -17 0
-183 182 0
-183 17 0
184 -785 -181 0
-184 785 0
-184 181 0
185 -33 -705 0
-185 33 0
-185 705 0
186 -185 -786 0
-186 185 0
-186 786 0
187 -787 -184 0
-187 787 0
-187 184 0
188 -20 -6 0
-188 20 0
-188 6 0
189 -188 -788 0
-189 188 0
-189 788 0
190 -789 -187 0
-190 789 0
-190 187 0
191 -41 -790 0
-191 41 0
-191 790 0
192 -191 -754 0
-192 191 0
-192 754 0
193 -791 -190 0
-193 791 0
-193 190 0
194 -726 -12 0
-194 726 0
-194 12 0
195 -194 -705 0
-195 194 0
-195 705 0
196 -792 -193 0
-196 792 0
-196 193 0
197 -49 -5 0
-197 49 0
-197 5 0
198 -197 -733 0
-198 197 0
-198 733 0
199 -793 -196 0
-199 793 0
-199 196 0
200 -14 -6 0
-200 14 0
-200 6 0
201 -200 -718 0
-201 200 0
-201 718 0
202 -794 -199 0
-202 794 0
-202 199 0
203 -47 -795 0
-203 47 0
-203 795 0
204 -203 -757 0
-204 203 0
-204 757 0
205 -796 -202 0
-205 796 0
-205 202 0
206 -790 -2 0
-206 790 0
-206 2 0
207 -206 -714 0
-207 206 0
-207 714 0
208 -797 -205 0
-208 797 0
-208 205 0
209 -32 -718 0
-209 32 0
-209 718 0
210 -209 -16 0
-210 209 0
-210 16 0
211 -798 -208 0
-211 798 0
-211 208 0
212 -50 -762 0
-212 50 0
-212 762 0
213 -212 -799 0
-213 212 0
-213 799 0
214 -800 -211 0
-214 800 0
-214 211 0
215 -756 -714 0
-215 756 0
-215 714 0
216 -215 -727 0
-216 215 0
-216 727 0
217 -801 -214 0
-217 801 0
-217 214 0
218 -788 -701 0
-218 788 0
-218 701 0
219 -218 -733 0
-219 218 0
-219 733 0
220 -802 -217 0
-220 802 0
-220 217 0
221 -27 -24 0
-221 27 0
-221 24 0
222 -221 -768 0
-222 221 0
-222 768 0
223 -803 -220 0
-223 803 0
-223 220 0
224 -804 -26 0
-224 804 0
-224 26 0
225 -224 -749 0
-225 224 0
-225 749 0
226 -805 -223 0
-226 805 0
-226 223 0
227 -12 -718 0
-227 12 0
-227 718 0
228 -227 -16 0
-228 227 0
-228 16 0
229 -806 -226 0
-229 806 0
-229 226 0
230 -32 -7 0
-230 32 0
-230 7 0
231 -230 -799 0
-231 230 0
-231 799 0
232 -807 -229 0
-232 807 0
-232 229 0
233 -2 -719 0
-233 2 0
-233 719 0
234 -233 -752 0
-234 233 0
-234 752 0
235 -808 -232 0
-235 808 0
-235 232 0
236 -26 -8 0
-236 26 0
-236 8 0
237 -236 -32 0
-237 236 0
-237 32 0
238 -809 -235 0
-238 809 0
-238 235 0
239 -810 -735 0
-239 810 0
-239 735 0
240 -239 -776 0
-240 239 0
-240 776 0
241 -811 -238 0
-241 811 0
-241 238 0
242 -27 -22 0
-242 27 0
-242 22 0
243 -242 -779 0
-243 242 0
-243 779 0
244 -812 -241 0
-244 812 0
-244 241 0
245 -46 -26 0
-245 46 0
-245 26 0
246 -245 -749 0
-246 245 0
-246 749 0
247 -813 -244 0
-247 813 0
-247 244 0
248 -20 -722 0
-248 20 0
-248 722 0
249 -248 -21 0
-249 248 0
-249 21 0
250 -814 -247 0
-250 814 0
-250 247 0
251 -38 -9 0
-251 38 0
-251 9 0
252 -251 -710 0
-252 251 0
-252 710 0
253 -815 -250 0
-253 815 0
-253 250 0
254 -816 -33 0
-254 816 0
-254 33 0
255 -254 -3 0
-255 254 0
-255 3 0
256 -817 -253 0
-256 817 0
-256 253 0
257 -804 -772 0
-257 804 0
-257 772 0
258 -257 -21 0
-258 257 0
-258 21 0
259 -818 -256 0
-259 818 0
-259 256 0
260 -38 -13 0
-260 38 0
-260 13 0
261 -260 -36 0
-261 260 0
-261 36 0
262 -819 -259 0
-262 819 0
-262 259 0
263 -748 -2 0
-263 748 0
-263 2 0
264 -263 -40 0
-264 263 0
-264 40 0
265 -820 -262 0
-265 820 0
-265 262 0
266 -10 -7 0
-266 10 0
-266 7 0
267 -266 -46 0
-267 266 0
-267 46 0
268 -821 -265 0
-268 821 0
-268 265 0
269 -50 -42 0
-269 50 0
-269 42 0
270 -269 -36 0
-270 269 0
-270 36 0
271 -822 -268 0
-271 822 0
-271 268 0
272 -724 -718 0
-272 724 0
-272 718 0
273 -272 -37 0
-273 272 0
-273 37 0
274 -823 -271 0
-274 823 0
-274 271 0
275 -50 -722 0
-275 50 0
-275 722 0
276 -275 -5 0
-276 275 0
-276 5 0
277 -824 -274 0
-277 824 0
-277 274 0
278 -747 -714 0
-278 747 0
-278 714 0
279 -278 -757 0
-279 278 0
-279 757 0
280 -825 -277 0
-280 825 0
-280 277 0
281 -41 -743 0
-281 41 0
-281 743 0
282 -281 -768 0
-282 281 0
-282 768 0
283 -826 -280 0
-283 826 0
-283 280 0
284 -35 -33 0
-284 35 0
-284 33 0
285 -284 -776 0
-285 284 0
-285 776 0
286 -827 -283 0
-286 827 0
-286 283 0
287 -233 -799 0
-287 233 0
-287 799 0
288 -828 -286 0
-288 828 0
-288 286 0
289 -738 -748 0
-289 738 0
-289 748 0
290 -289 -749 0
-290 289 0
-290 749 0
291 -829 -288 0
-291 829 0
-291 288 0
292 -830 -25 0
-292 830 0
-292 25 0
293 -292 -816 0
-293 292 0
-293 816 0
294 -831 -291 0
-294 831 0
-294 291 0
295 -804 -34 0
-295 804 0
-295 34 0
296 -295 -727 0
-296 295 0
-296 727 0
297 -832 -294 0
-297 832 0
-297 294 0
298 -804 -20 0
-298 804 0
-298 20 0
299 -298 -779 0
-299 298 0
-299 779 0
300 -833 -297 0
-300 833 0
-300 297 0
301 -754 -724 0
-301 754 0
-301 724 0
302 -301 -40 0
-302 301 0
-302 40 0
303 -834 -300 0
-303 834 0
-303 300 0
304 -36 -743 0
-304 36 0
-304 743 0
305 -304 -788 0
-305 304 0
-305 788 0
306 -835 -303 0
-306 835 0
-306 303 0
307 -32 -25 0
-307 32 0
-307 25 0
308 -307 -48 0
-308 307 0
-308 48 0
309 -836 -306 0
-309 836 0
-309 306 0
310 -45 -42 0
-310 45 0
-310 42 0
311 -310 -44 0
-311 310 0
-311 44 0
312 -837 -309 0
-312 837 0
-312 309 0
313 -45 -772 0
-313 45 0
-313 772 0
314 -313 -47 0
-314 313 0
-314 47 0
315 -838 -312 0
-315 838 0
-315 312 0
316 -40 -764 0
-316 40 0
-316 764 0
317 -316 -16 0
-317 316 0
-317 16 0
318 -839 -315 0
-318 839 0
-318 315 0
319 -772 -23 0
-319 772 0
-319 23 0
320 -319 -816 0
-320 319 0
-320 816 0
321 -840 -318 0
-321 840 0
-321 318 0
322 -9 -722 0
-322 9 0
-322 722 0
323 -322 -747 0
-323 322 0
-323 747 0
324 -841 -321 0
-324 841 0
-324 321 0
325 -50 -38 0
-325 50 0
-325 38 0
326 -325 -752 0
-326 325 0
-326 752 0
327 -842 -324 0
-327 842 0
-327 324 0
328 -729 -707 0
-328 729 0
-328 707 0
329 -328 -14 0
-329 328 0
-329 14 0
330 -843 -327 0
-330 843 0
-330 327 0
331 -710 -722 0
-331 710 0
-331 722 0
332 -331 -779 0
-332 331 0
-332 779 0
333 -844 -330 0
-333 844 0
-333 330 0
334 -50 -44 0
-334 50 0
-334 44 0
335 -334 -47 0
-335 334 0
-335 47 0
336 -845 -333 0
-336 845 0
-336 333 0
337 -762 -12 0
-337 762 0
-337 12 0
338 -337 -786 0
-338 337 0
-338 786 0
339 -846 -336 0
-339 846 0
-339 336 0
340 -24 -710 0
-340 24 0
-340 710 0
341 -340 -47 0
-341 340 0
-341 47 0
342 -847 -339 0
-342 847 0
-342 339 0
343 -743 -25 0
-343 743 0
-343 25 0
344 -343 -749 0
-344 343 0
-344 749 0
345 -848 -342 0
-345 848 0
-345 342 0
346 -15 -10 0
-346 15 0
-346 10 0
347 -346 -46 0
-347 346 0
-347 46 0
348 -849 -345 0
-348 849 0
-348 345 0
349 -29 -9 0
-349 29 0
-349 9 0
350 -349 -738 0
-350 349 0
-350 738 0
351 -850 -348 0
-351 850 0
-351 348 0
352 -754 -4 0
-352 754 0
-352 4 0
353 -352 -46 0
-353 352 0
-353 46 0
354 -851 -351 0
-354 851 0
-354 351 0
355 -41 -26 0
-355 41 0
-355 26 0
356 -355 -737 0
-356 355 0
-356 737 0
357 -852 -354 0
-357 852 0
-357 354 0
358 -34 -735 0
-358 34 0
-358 735 0
359 -358 -764 0
-359 358 0
-359 764 0
360 -853 -357 0
-360 853 0
-360 357 0
361 -39 -712 0
-361 39 0
-361 712 0
362 -361 -43 0
-362 361 0
-362 43 0
363 -854 -360 0
-363 854 0
-363 360 0
364 -37 -11 0
-364 37 0
-364 11 0
365 -364 -18 0
-365 364 0
-365 18 0
366 -855 -363 0
-366 855 0
-366 363 0
367 -830 -13 0
-367 830 0
-367 13 0
368 -367 -731 0
-368 367 0
-368 731 0
369 -856 -366 0
-369 856 0
-369 366 0
370 -39 -26 0
-370 39 0
-370 26 0
371 -370 -701 0
-371 370 0
-371 701 0
372 -857 -369 0
-372 857 0
-372 369 0
373 -9 -764 0
-373 9 0
-373 764 0
374 -373 -30 0
-374 373 0
-374 30 0
375 -858 -372 0
-375 858 0
-375 372 0
376 -752 -704 0
-376 752 0
-376 704 0
377 -376 -716 0
-377 376 0
-377 716 0
378 -859 -375 0
-378 859 0
-378 375 0
379 -752 -710 0
-379 752 0
-379 710 0
380 -379 -16 0
-380 379 0
-380 16 0
381 -860 -378 0
-381 860 0
-381 378 0
382 -7 -1 0
-382 7 0
-382 1 0
383 -382 -743 0
-383 382 0
-383 743 0
384 -861 -381 0
-384 861 0
-384 381 0
385 -810 -39 0
-385 810 0
-385 39 0
386 -385 -16 0
-386 385 0
-386 16 0
387 -862 -384 0
-387 862 0
-387 384 0
388 -743 -729 0
-388 743 0
-388 729 0
389 -388 -731 0
-389 388 0
-389 731 0
390 -863 -387 0
-390 863 0
-390 387 0
391 -762 -31 0
-391 762 0
-391 31 0
392 -391 -17 0
-392 391 0
-392 17 0
393 -864 -390 0
-393 864 0
-393 390 0
394 -33 -13 0
-394 33 0
-394 13 0
395 -394 -782 0
-395 394 0
-395 782 0
396 -865 -393 0
-396 865 0
-396 393 0
397 -35 -707 0
-397 35 0
-397 707 0
398 -397 -27 0
-398 397 0
-398 27 0
399 -866 -396 0
-399 866 0
-399 396 0
400 -17 -737 0
-400 17 0
-400 737 0
401 -400 -776 0
-401 400 0
-401 776 0
402 -867 -399 0
-402 867 0
-402 399 0
403 -830 -41 0
-403 830 0
-403 41 0
404 -403 -799 0
-404 403 0
-404 799 0
405 -868 -402 0
-405 868 0
-405 402 0
406 -13 -3 0
-406 13 0
-406 3 0
407 -406 -16 0
-407 406 0
-407 16 0
408 -869 -405 0
-408 869 0
-408 405 0
409 -26 -15 0
-409 26 0
-409 15 0
410 -409 -738 0
-410 409 0
-410 738 0
411 -870 -408 0
-411 870 0
-411 408 0
412 -22 -6 0
-412 22 0
-412 6 0
413 -412 -30 0
-413 412 0
-413 30 0
414 -871 -411 0
-414 871 0
-414 411 0
415 -810 -4 0
-415 810 0
-415 4 0
416 -415 -788 0
-416 415 0
-416 788 0
417 -872 -414 0
-417 872 0
-417 414 0
418 -873 -1 0
-418 873 0
-418 1 0
419 -418 -40 0
-419 418 0
-419 40 0
420 -874 -417 0
-420 874 0
-420 417 0
421 -40 -11 0
-421 40 0
-421 11 0
422 -421 -16 0
-422 421 0
-422 16 0
423 -875 -420 0
-423 875 0
-423 420 0
424 -830 -709 0
-424 830 0
-424 709 0
425 -424 -26 0
-425 424 0
-425 26 0
426 -876 -423 0
-426 876 0
-426 423 0
427 -50 -743 0
-427 50 0
-427 743 0
428 -427 -810 0
-428 427 0
-428 810 0
429 -877 -426 0
-429 877 0
-429 426 0
430 -42 -38 0
-430 42 0
-430 38 0
431 -430 -786 0
-431 430 0
-431 786 0
432 -878 -429 0
-432 878 0
-432 429 0
433 -830 -735 0
-433 830 0
-433 735 0
434 -433 -718 0
-434 433 0
-434 718 0
435 -879 -432 0
-435 879 0
-435 432 0
436 -49 -37 0
-436 49 0
-436 37 0
437 -436 -30 0
-437 436 0
-437 30 0
438 -880 -435 0
-438 880 0
-438 435 0
439 -741 -17 0
-439 741 0
-439 17 0
440 -439 -799 0
-440 439 0
-440 799 0
441 -881 -438 0
-441 881 0
-441 438 0
442 -776 -32 0
-442 776 0
-442 32 0
443 -442 -714 0
-443 442 0
-443 714 0
444 -882 -441 0
-444 882 0
-444 441 0
445 -790 -710 0
-445 790 0
-445 710 0
446 -445 -27 0
-446 445 0
-446 27 0
447 -883 -444 0
-447 883 0
-447 444 0
448 -21 -17 0
-448 21 0
-448 17 0
449 -448 -46 0
-449 448 0
-449 46 0
450 -884 -447 0
-450 884 0
-450 447 0
451 -48 -13 0
-451 48 0
-451 13 0
452 -451 -816 0
-452 451 0
-452 816 0
453 -885 -450 0
-453 885 0
-453 450 0
454 -830 -737 0
-454 830 0
-454 737 0
455 -454 -747 0
-455 454 0
-455 747 0
456 -886 -453 0
-456 886 0
-456 453 0
457 -754 -729 0
-457 754 0
-457 729 0
458 -457 -30 0
-458 457 0
-458 30 0
459 -887 -456 0
-459 887 0
-459 456 0
460 -772 -704 0
-460 772 0
-460 704 0
461 -460 -34 0
-461 460 0
-461 34 0
462 -888 -459 0
-462 888 0
-462 459 0
463 -795 -14 0
-463 795 0
-463 14 0
464 -463 -49 0
-464 463 0
-464 49 0
465 -889 -462 0
-465 889 0
-465 462 0
466 -769 -35 0
-466 769 0
-466 35 0
467 -466 -712 0
-467 466 0
-467 712 0
468 -890 -465 0
-468 890 0
-468 465 0
469 -769 -17 0
-469 769 0
-469 17 0
470 -469 -788 0
-470 469 0
-470 788 0
471 -891 -468 0
-471 891 0
-471 468 0
472 -48 -25 0
-472 48 0
-472 25 0
473 -472 -43 0
-473 472 0
-473 43 0
474 -892 -471 0
-474 892 0
-474 471 0
475 -762 -724 0
-475 762 0
-475 724 0
476 -475 -710 0
-476 475 0
-476 710 0
477 -893 -474 0
-477 893 0
-477 474 0
478 -35 -737 0
-478 35 0
-478 737 0
479 -478 -733 0
-479 478 0
-479 733 0
480 -894 -477 0
-480 894 0
-480 477 0
481 -790 -729 0
-481 790 0
-481 729 0
482 -481 -40 0
-482 481 0
-482 40 0
483 -895 -480 0
-483 895 0
-483 480 0
484 -41 -1 0
-484 41 0
-484 1 0
485 -484 -33 0
-485 484 0
-485 33 0
486 -896 -483 0
-486 896 0
-486 483 0
487 -21 -718 0
-487 21 0
-487 718 0
488 -487 -768 0
-488 487 0
-488 768 0
489 -897 -486 0
-489 897 0
-489 486 0
490 -27 -2 0
-490 27 0
-490 2 0
491 -490 -716 0
-491 490 0
-491 716 0
492 -898 -489 0
-492 898 0
-492 489 0
493 -768 -33 0
-493 768 0
-493 33 0
494 -493 -786 0
-494 493 0
-494 786 0
495 -899 -492 0
-495 899 0
-495 492 0
496 -731 -705 0
-496 731 0
-496 705 0
497 -496 -3 0
-497 496 0
-497 3 0
498 -900 -495 0
-498 900 0
-498 495 0
499 -41 -29 0
-499 41 0
-499 29 0
500 -499 -769 0
-500 499 0
-500 769 0
501 -901 -498 0
-501 901 0
-501 498 0
502 -6 -701 0
-502 6 0
-502 701 0
503 -502 -747 0
-503 502 0
-503 747 0
504 -902 -501 0
-504 902 0
-504 501 0
505 -747 -16 0
-505 747 0
-505 16 0
506 -505 -43 0
-506 505 0
-506 43 0
507 -903 -504 0
-507 903 0
-507 504 0
508 -779 -701 0
-508 779 0
-508 701 0
509 -508 -786 0
-509 508 0
-509 786 0
510 -904 -507 0
-510 904 0
-510 507 0
511 -707 -714 0
-511 707 0
-511 714 0
512 -511 -816 0
-512 511 0
-512 816 0
513 -905 -510 0
-513 905 0
-513 510 0
514 -22 -737 0
-514 22 0
-514 737 0
515 -514 -17 0
-515 514 0
-515 17 0
516 -906 -513 0
-516 906 0
-516 513 0
517 -830 -7 0
-517 830 0
-517 7 0
518 -517 -49 0
-518 517 0
-518 49 0
519 -907 -516 0
-519 907 0
-519 516 0
520 -34 -726 0
-520 34 0
-520 726 0
521 -520 -18 0
-521 520 0
-521 18 0
522 -908 -519 0
-522 908 0
-522 519 0
523 -816 -42 0
-523 816 0
-523 42 0
524 -523 -786 0
-524 523 0
-524 786 0
525 -909 -522 0
-525 909 0
-525 522 0
526 -724 -21 0
-526 724 0
-526 21 0
527 -526 -795 0
-527 526 0
-527 795 0
528 -910 -525 0
-528 910 0
-528 525 0
529 -731 -20 0
-529 731 0
-529 20 0
530 -529 -36 0
-530 529 0
-530 36 0
531 -911 -528 0
-531 911 0
-531 528 0
532 -768 -704 0
-532 768 0
-532 704 0
533 -532 -764 0
-533 532 0
-533 764 0
534 -912 -531 0
-534 912 0
-534 531 0
535 -44 -35 0
-535 44 0
-535 35 0
536 -535 -49 0
-536 535 0
-536 49 0
537 -913 -534 0
-537 913 0
-537 534 0
538 -48 -20 0
-538 48 0
-538 20 0
539 -538 -716 0
-539 538 0
-539 716 0
540 -914 -537 0
-540 914 0
-540 537 0
541 -727 -17 0
-541 727 0
-541 17 0
542 -541 -18 0
-542 541 0
-542 18 0
543 -915 -540 0
-543 915 0
-543 540 0
544 -41 -772 0
-544 41 0
-544 772 0
545 -544 -786 0
-545 544 0
-545 786 0
546 -916 -543 0
-546 916 0
-546 543 0
547 -754 -790 0
-547 754 0
-547 790 0
548 -547 -3 0
-548 547 0
-548 3 0
549 -917 -546 0
-549 917 0
-549 546 0
550 -445 -19 0
-550 445 0
-550 19 0
551 -918 -549 0
-551 918 0
-551 549 0
552 -39 -7 0
-552 39 0
-552 7 0
553 -552 -749 0
-553 552 0
-553 749 0
554 -919 -551 0
-554 919 0
-554 551 0
555 -42 -762 0
-555 42 0
-555 762 0
556 -555 -25 0
-556 555 0
-556 25 0
557 -920 -554 0
-557 920 0
-557 554 0
558 -40 -722 0
-558 40 0
-558 722 0
559 -558 -34 0
-559 558 0
-559 34 0
560 -921 -557 0
-560 921 0
-560 557 0
561 -40 -754 0
-561 40 0
-561 754 0
562 -561 -32 0
-562 561 0
-562 32 0
563 -922 -560 0
-563 922 0
-563 560 0
564 -743 -24 0
-564 743 0
-564 24 0
565 -564 -11 0
-565 564 0
-565 11 0
566 -923 -563 0
-566 923 0
-566 563 0
567 -41 -779 0
-567 41 0
-567 779 0
568 -567 -5 0
-568 567 0
-568 5 0
569 -924 -566 0
-569 924 0
-569 566 0
570 -709 -712 0
-570 709 0
-570 712 0
571 -570 -8 0
-571 570 0
-571 8 0
572 -925 -569 0
-572 925 0
-572 569 0
573 -31 -17 0
-573 31 0
-573 17 0
574 -573 -43 0
-574 573 0
-574 43 0
575 -926 -572 0
-575 926 0
-575 572 0
576 -772 -14 0
-576 772 0
-576 14 0
577 -576 -747 0
-577 576 0
-577 747 0
578 -927 -575 0
-578 927 0
-578 575 0
579 -40 -737 0
-579 40 0
-579 737 0
580 -579 -788 0
-580 579 0
-580 788 0
581 -928 -578 0
-581 928 0
-581 578 0
582 -769 -4 0
-582 769 0
-582 4 0
583 -582 -768 0
-583 582 0
-583 768 0
584 -929 -581 0
-584 929 0
-584 581 0
585 -15 -12 0
-585 15 0
-585 12 0
586 -585 -14 0
-586 585 0
-586 14 0
587 -930 -584 0
-587 930 0
-587 584 0
588 -735 -707 0
-588 735 0
-588 707 0
589 -588 -3 0
-589 588 0
-589 3 0
590 -931 -587 0
-590 931 0
-590 587 0
591 -722 -1 0
-591 722 0
-591 1 0
592 -591 -752 0
-592 591 0
-592 752 0
593 -932 -590 0
-593 932 0
-593 590 0
594 -754 -709 0
-594 754 0
-594 709 0
595 -594 -14 0
-595 594 0
-595 14 0
596 -933 -593 0
-596 933 0
-596 593 0
597 -776 -37 0
-597 776 0
-597 37 0
598 -597 -733 0
-598 597 0
-598 733 0
599 -934 -596 0
-599 934 0
-599 596 0
600 -762 -13 0
-600 762 0
-600 13 0
601 -600 -731 0
-601 600 0
-601 731 0
602 -935 -599 0
-602 935 0
-602 599 0
603 -15 -709 0
-603 15 0
-603 709 0
604 -603 -3 0
-604 603 0
-604 3 0
605 -936 -602 0
-605 936 0
-605 602 0
606 -23 -9 0
-606 23 0
-606 9 0
607 -606 -32 0
-607 606 0
-607 32 0
608 -937 -605 0
-608 937 0
-608 605 0
609 -873 -748 0
-609 873 0
-609 748 0
610 -609 -757 0
-610 609 0
-610 757 0
611 -938 -608 0
-611 938 0
-611 608 0
612 -735 -9 0
-612 735 0
-612 9 0
613 -612 -748 0
-613 612 0
-613 748 0
614 -939 -611 0
-614 939 0
-614 611 0
615 -735 -743 0
-615 735 0
-615 743 0
616 -615 -741 0
-616 615 0
-616 741 0
617 -940 -614 0
-617 940 0
-617 614 0
618 -28 -729 0
-618 28 0
-618 729 0
619 -618 -705 0
-619 618 0
-619 705 0
620 -941 -617 0
-620 941 0
-620 617 0
621 -743 -748 0
-621 743 0
-621 748 0
622 -621 -810 0
-622 621 0
-622 810 0
623 -942 -620 0
-623 942 0
-623 620 0
624 -7 -2 0
-624 7 0
-624 2 0
625 -624 -33 0
-625 624 0
-625 33 0
626 -943 -623 0
-626 943 0
-626 623 0
627 -790 -724 0
-627 790 0
-627 724 0
628 -627 -788 0
-628 627 0
-628 788 0
629 -944 -626 0
-629 944 0
-629 626 0
630 -10 -705 0
-630 10 0
-630 705 0
631 -630 -799 0
-631 630 0
-631 799 0
632 -945 -629 0
-632 945 0
-632 629 0
633 -769 -31 0
-633 769 0
-633 31 0
634 -633 -768 0
-634 633 0
-634 768 0
635 -946 -632 0
-635 946 0
-635 632 0
636 -50 -707 0
-636 50 0
-636 707 0
637 -636 -8 0
-637 636 0
-637 8 0
638 -947 -635 0
-638 947 0
-638 635 0
639 -49 -8 0
-639 49 0
-639 8 0
640 -639 -3 0
-640 639 0
-640 3 0
641 -948 -638 0
-641 948 0
-641 638 0
642 -810 -15 0
-642 810 0
-642 15 0
643 -642 -764 0
-643 642 0
-643 764 0
644 -949 -641 0
-644 949 0
-644 641 0
645 -42 -714 0
-645 42 0
-645 714 0
646 -645 -733 0
-646 645 0
-646 733 0
647 -950 -644 0
-647 950 0
-647 644 0
648 -26 -13 0
-648 26 0
-648 13 0
649 -648 -788 0
-649 648 0
-649 788 0
650 -951 -647 0
-650 951 0
-650 647 0
651 -772 -8 0
-651 772 0
-651 8 0
652 -651 -764 0
-652 651 0
-652 764 0
653 -952 -650 0
-653 952 0
-653 650 0
654 -772 -1 0
-654 772 0
-654 1 0
655 -654 -776 0
-655 654 0
-655 776 0
656 -953 -653 0
-656 953 0
-656 653 0
657 -735 -724 0
-657 735 0
-657 724 0
658 -657 -25 0
-658 657 0
-658 25 0
659 -954 -656 0
-659 954 0
-659 656 0
660 -743 -788 0
-660 743 0
-660 788 0
661 -660 -19 0
-661 660 0
-661 19 0
662 -955 -659 0
-662 955 0
-662 659 0
663 -26 -764 0
-663 26 0
-663 764 0
664 -663 -30 0
-664 663 0
-664 30 0
665 -956 -662 0
-665 956 0
-665 662 0
666 -41 -705 0
-666 41 0
-666 705 0
667 -666 -749 0
-667 666 0
-667 749 0
668 -957 -665 0
-668 957 0
-668 665 0
669 -17 -1 0
-669 17 0
-669 1 0
670 -669 -788 0
-670 669 0
-670 788 0
671 -958 -668 0
-671 958 0
-671 668 0
672 -729 -738 0
-672 729 0
-672 738 0
673 -672 -21 0
-673 672 0
-673 21 0
674 -959 -671 0
-674 959 0
-674 671 0
675 -790 -9 0
-675 790 0
-675 9 0
676 -675 -799 0
-676 675 0
-676 799 0
677 -960 -674 0
-677 960 0
-677 674 0
678 -772 -735 0
-678 772 0
-678 735 0
679 -678 -816 0
-679 678 0
-679 816 0
680 -961 -677 0
-680 961 0
-680 677 0
681 -612 -788 0
-681 612 0
-681 788 0
682 -962 -680 0
-682 962 0
-682 680 0
683 -754 -1 0
-683 754 0
-683 1 0
684 -683 -799 0
-684 683 0
-684 799 0
685 -963 -682 0
-685 963 0
-685 682 0
686 -729 -712 0
-686 729 0
-686 712 0
687 -686 -34 0
-687 686 0
-687 34 0
688 -964 -685 0
-688 964 0
-688 685 0
689 -34 -30 0
-689 34 0
-689 30 0
690 -689 -786 0
-690 689 0
-690 786 0
691 -965 -688 0
-691 965 0
-691 688 0
692 -23 -721 0
-692 23 0
-692 721 0
693 -692 -5 0
-693 692 0
-693 5 0
694 -966 -691 0
-694 966 0
-694 691 0
695 -707 -722 0
-695 707 0
-695 722 0
696 -695 -30 0
-696 695 0
-696 30 0
697 -967 -694 0
-697 967 0
-697 694 0
698 -704 -701 0
-698 704 0
-698 701 0
699 -698 -743 0
-699 698 0
-699 743 0
700 -968 -697 0
-700 968 0
-700 697 0
-701 -2 0
701 2 0
-702 -54 0
702 54 0
-703 -52 0
703 52 0
-704 -6 0
704 6 0
-705 -8 0
705 8 0
-706 -57 0
706 57 0
-707 -9 0
707 9 0
-708 -60 0
708 60 0
-709 -12 0
709 12 0
-710 -14 0
710 14 0
-711 -63 0
711 63 0
-712 -4 0
712 4 0
-713 -66 0
713 66 0
-714 -5 0
714 5 0
-715 -69 0
715 69 0
-716 -18 0
716 18 0
-717 -72 0
717 72 0
-718 -10 0
718 10 0
-719 -1 0
719 1 0
-720 -75 0
720 75 0
-721 -20 0
721 20 0
-722 -7 0
722 7 0
-723 -78 0
723 78 0
-724 -22 0
724 22 0
-725 -81 0
725 81 0
-726 -24 0
726 24 0
-727 -25 0
727 25 0
-728 -84 0
728 84 0
-729 -26 0
729 26 0
-730 -87 0
730 87 0
-731 -28 0
731 28 0
-732 -90 0
732 90 0
-733 -30 0
733 30 0
-734 -93 0
734 93 0
-735 -31 0
735 31 0
-736 -96 0
736 96 0
-737 -13 0
737 13 0
-738 -23 0
738 23 0
-739 -99 0
739 99 0
-740 -102 0
740 102 0
-741 -32 0
741 32 0
-742 -105 0
742 105 0
-743 -27 0
743 27 0
-744 -108 0
744 108 0
-745 -111 0
745 111 0
-746 -114 0
746 114 0
-747 -17 0
747 17 0
-748 -15 0
748 15 0
-749 -19 0
749 19 0
-750 -117 0
750 117 0
-751 -120 0
751 120 0
-752 -37 0
752 37 0
-753 -123 0
753 123 0
-754 -39 0
754 39 0
-755 -126 0
755 126 0
-756 -21 0
756 21 0
-757 -16 0
757 16 0
-758 -129 0
758 129 0
-759 -132 0
759 132 0
-760 -40 0
760 40 0
-761 -135 0
761 135 0
-762 -41 0
762 41 0
-763 -138 0
763 138 0
-764 -3 0
764 3 0
-765 -141 0
765 141 0
-766 -144 0
766 144 0
-767 -147 0
767 147 0
-768 -46 0
768 46 0
-769 -45 0
769 45 0
-770 -150 0
770 150 0
-771 -153 0
771 153 0
-772 -38 0
772 38 0
-773 -156 0
773 156 0
-774 -159 0
774 159 0
-775 -162 0
775 162 0
-776 -47 0
776 47 0
-777 -165 0
777 165 0
-778 -168 0
778 168 0
-779 -33 0
779 33 0
-780 -171 0
780 171 0
-781 -174 0
781 174 0
-782 -48 0
782 48 0
-783 -177 0
783 177 0
-784 -180 0
784 180 0
-785 -183 0
785 183 0
-786 -43 0
786 43 0
-787 -186 0
787 186 0
-788 -11 0
788 11 0
-789 -189 0
789 189 0
-790 -29 0
790 29 0
-791 -192 0
791 192 0
-792 -195 0
792 195 0
-793 -198 0
793 198 0
-794 -201 0
794 201 0
-795 -36 0
795 36 0
-796 -204 0
796 204 0
-797 -207 0
797 207 0
-798 -210 0
798 210 0
-799 -34 0
799 34 0
-800 -213 0
800 213 0
-801 -216 0
801 216 0
-802 -219 0
802 219 0
-803 -222 0
803 222 0
-804 -42 0
804 42 0
-805 -225 0
805 225 0
-806 -228 0
806 228 0
-807 -231 0
807 231 0
-808 -234 0
808 234 0
-809 -237 0
809 237 0
-810 -44 0
810 44 0
-811 -240 0
811 240 0
-812 -243 0
812 243 0
-813 -246 0
813 246 0
-814 -249 0
814 249 0
-815 -252 0
815 252 0
-816 -49 0
816 49 0
-817 -255 0
817 255 0
-818 -258 0
818 258 0
-819 -261 0
819 261 0
-820 -264 0
820 264 0
-821 -267 0
821 267 0
-822 -270 0
822 270 0
-823 -273 0
823 273 0
-824 -276 0
824 276 0
-825 -279 0
825 279 0
-826 -282 0
826 282 0
-827 -285 0
827 285 0
-828 -287 0
828 287 0
-829 -290 0
829 290 0
-830 -50 0
830 50 0
-831 -293 0
831 293 0
-832 -296 0
832 296 0
-833 -299 0
833 299 0
-834 -302 0
834 302 0
-835 -305 0
835 305 0
-836 -308 0
836 308 0
-837 -311 0
837 311 0
-838 -314 0
838 314 0
-839 -317 0
839 317 0
-840 -320 0
840 320 0
-841 -323 0
841 323 0
-842 -326 0
842 326 0
-843 -329 0
843 329 0
-844 -332 0
844 332 0
-845 -335 0
845 335 0
-846 -338 0
846 338 0
-847 -341 0
847 341 0
-848 -344 0
848 344 0
-849 -347 0
849 347 0
-850 -350 0
850 350 0
-851 -353 0
851 353 0
-852 -356 0
852 356 0
-853 -359 0
853 359 0
-854 -362 0
854 362 0
-855 -365 0
855 365 0
-856 -368 0
856 368 0
-857 -371 0
857 371 0
-858 -374 0
858 374 0
-859 -377 0
859 377 0
-860 -380 0
860 380 0
-861 -383 0
861 383 0
-862 -386 0
862 386 0
-863 -389 0
863 389 0
-864 -392 0
864 392 0
-865 -395 0
865 395 0
-866 -398 0
866 398 0
-867 -401 0
867 401 0
-868 -404 0
868 404 0
-869 -407 0
869 407 0
-870 -410 0
870 410 0
-871 -413 0
871 413 0
-872 -416 0
872 416 0
-873 -35 0
873 35 0
-874 -419 0
874 419 0
-875 -422 0
875 422 0
-876 -425 0
876 425 0
-877 -428 0
877 428 0
-878 -431 0
878 431 0
-879 -434 0
879 434 0
-880 -437 0
880 437 0
-881 -440 0
881 440 0
-882 -443 0
882 443 0
-883 -446 0
883 446 0
-884 -449 0
884 449 0
-885 -452 0
885 452 0
-886 -455 0
886 455 0
-887 -458 0
887 458 0
-888 -461 0
888 461 0
-889 -464 0
889 464 0
-890 -467 0
890 467 0
-891 -470 0
891 470 0
-892 -473 0
892 473 0
-893 -476 0
893 476 0
-894 -479 0
894 479 0
-895 -482 0
895 482 0
-896 -485 0
896 485 0
-897 -488 0
897 488 0
-898 -491 0
898 491 0
-899 -494 0
899 494 0
-900 -497 0
900 497 0
-901 -500 0
901 500 0
-902 -503 0
902 503 0
-903 -506 0
903 506 0
-904 -509 0
904 509 0
-905 -512 0
905 512 0
-906 -515 0
906 515 0
-907 -518 0
907 518 0
-908 -521 0
908 521 0
-909 -524 0
909 524 0
-910 -527 0
910 527 0
-911 -530 0
911 530 0
-912 -533 0
912 533 0
-913 -536 0
913 536 0
-914 -539 0
914 539 0
-915 -542 0
915 542 0
-916 -545 0
916 545 0
-917 -548 0
917 548 0
-918 -550 0
918 550 0
-919 -553 0
919 553 0
-920 -556 0
920 556 0
-921 -559 0
921 559 0
-922 -562 0
922 562 0
-923 -565 0
923 565 0
-924 -568 0
924 568 0
-925 -571 0
925 571 0
-926 -574 0
926 574 0
-927 -577 0
927 577 0
-928 -580 0
928 580 0
-929 -583 0
929 583 0
-930 -586 0
930 586 0
-931 -589 0
931 589 0
-932 -592 0
932 592 0
-933 -595 0
933 595 0
-934 -598 0
934 598 0
-935 -601 0
935 601 0
-936 -604 0
936 604 0
-937 -607 0
937 607 0
-938 -610 0
938 610 0
-939 -613 0
939 613 0
-940 -616 0
940 616 0
-941 -619 0
941 619 0
-942 -622 0
942 622 0
-943 -625 0
943 625 0
-944 -628 0
944 628 0
-945 -631 0
945 631 0
-946 -634 0
946 634 0
-947 -637 0
947 637 0
-948 -640 0
948 640 0
-949 -643 0
949 643 0
-950 -646 0
950 646 0
-951 -649 0
951 649 0
-952 -652 0
952 652 0
-953 -655 0
953 655 0
-954 -658 0
954 658 0
-955 -661 0
955 661 0
-956 -664 0
956 664 0
-957 -667 0
957 667 0
-958 -670 0
958 670 0
-959 -673 0
959 673 0
-960 -676 0
960 676 0
-961 -679 0
961 679 0
-962 -681 0
962 681 0
-963 -684 0
963 684 0
-964 -687 0
964 687 0
-965 -690 0
965 690 0
-966 -693 0
966 693 0
-967 -696 0
967 696 0
-968 -699 0
968 699 0
700 0
